Welcome to the CBC MILP Solver 
Version: 2.10.7 
Build Date: Feb 14 2022 

command line - cbc inputs/new_no_tr/order/default30_down_left_input.lp sec 1800 solve solu solutions/new_no_tr/default30_down_left_input.lp (default strategy 1)
seconds was changed from 1e+100 to 1800
Continuous objective value is 25600 - 0.21 seconds
Cgl0002I 94 variables fixed
Cgl0003I 0 fixed, 18 tightened bounds, 612 strengthened rows, 0 substitutions
Cgl0003I 0 fixed, 5 tightened bounds, 113 strengthened rows, 0 substitutions
Cgl0003I 0 fixed, 9 tightened bounds, 73 strengthened rows, 0 substitutions
Cgl0003I 0 fixed, 2 tightened bounds, 6 strengthened rows, 0 substitutions
Cgl0004I processed model has 2919 rows, 984 columns (984 integer (953 of which binary)) and 9870 elements
Cutoff increment increased from 1e-05 to 0.9999
Cbc0045I 1 integer variables out of 984 objects (984 integer) have cost of 1 - high priority
Cbc0045I branch on satisfied Y create fake objective Y random cost Y
Cbc0038I Initial state - 511 integers unsatisfied sum - 150.518
Cbc0038I Pass   1: suminf.   83.43745 (486) obj. 32110 iterations 924
Cbc0038I Pass   2: suminf.   71.62126 (510) obj. 34050.7 iterations 525
Cbc0038I Pass   3: suminf.   67.81188 (521) obj. 33498.3 iterations 233
Cbc0038I Pass   4: suminf.   64.14822 (519) obj. 33561.9 iterations 77
Cbc0038I Pass   5: suminf.   58.14183 (533) obj. 37363.8 iterations 423
Cbc0038I Pass   6: suminf.   65.72013 (578) obj. 38730 iterations 225
Cbc0038I Pass   7: suminf.   67.28920 (563) obj. 42421.9 iterations 264
Cbc0038I Pass   8: suminf.   65.41252 (589) obj. 42530.3 iterations 170
Cbc0038I Pass   9: suminf.   65.34451 (539) obj. 41045.1 iterations 321
Cbc0038I Pass  10: suminf.   63.37295 (547) obj. 41514.9 iterations 114
Cbc0038I Pass  11: suminf.   63.22217 (603) obj. 40227.9 iterations 368
Cbc0038I Pass  12: suminf.   60.18296 (564) obj. 38682.3 iterations 289
Cbc0038I Pass  13: suminf.   59.96144 (561) obj. 38785.2 iterations 72
Cbc0038I Pass  14: suminf.   60.45915 (547) obj. 39327.9 iterations 254
Cbc0038I Pass  15: suminf.   60.24971 (543) obj. 39331.7 iterations 77
Cbc0038I Pass  16: suminf.   60.05951 (561) obj. 38655.2 iterations 212
Cbc0038I Pass  17: suminf.   59.40325 (559) obj. 38337.9 iterations 127
Cbc0038I Pass  18: suminf.   60.37242 (527) obj. 38810 iterations 200
Cbc0038I Pass  19: suminf.   60.00321 (554) obj. 39034.2 iterations 126
Cbc0038I Pass  20: suminf.   62.45087 (544) obj. 39981.4 iterations 251
Cbc0038I Pass  21: suminf.   60.64576 (548) obj. 38350.3 iterations 242
Cbc0038I Pass  22: suminf.   60.16675 (555) obj. 38308.7 iterations 102
Cbc0038I Pass  23: suminf.   62.00933 (519) obj. 39045.3 iterations 308
Cbc0038I Pass  24: suminf.   59.15466 (526) obj. 39041.1 iterations 230
Cbc0038I Pass  25: suminf.   59.26024 (518) obj. 38988.1 iterations 74
Cbc0038I Pass  26: suminf.   59.55185 (517) obj. 39550.4 iterations 50
Cbc0038I Pass  27: suminf.   54.57542 (573) obj. 38451.3 iterations 348
Cbc0038I Pass  28: suminf.   59.05473 (556) obj. 38055.7 iterations 207
Cbc0038I Pass  29: suminf.   59.12094 (549) obj. 38899.7 iterations 175
Cbc0038I Pass  30: suminf.   59.12094 (549) obj. 38899.7 iterations 2
Cbc0038I Pass  31: suminf.   51.68175 (564) obj. 38560.9 iterations 327
Cbc0038I Pass  32: suminf.   58.08343 (561) obj. 38912 iterations 202
Cbc0038I Pass  33: suminf.   58.57133 (568) obj. 39007.8 iterations 37
Cbc0038I Pass  34: suminf.   57.43216 (566) obj. 41999.5 iterations 202
Cbc0038I Pass  35: suminf.   58.43007 (562) obj. 44202.2 iterations 190
Cbc0038I Pass  36: suminf.   51.17213 (573) obj. 41759.7 iterations 234
Cbc0038I Pass  37: suminf.   58.76806 (561) obj. 44041 iterations 320
Cbc0038I Pass  38: suminf.   54.03295 (559) obj. 43564.7 iterations 271
Cbc0038I Pass  39: suminf.   59.40192 (566) obj. 44043.5 iterations 318
Cbc0038I Pass  40: suminf.   55.33359 (528) obj. 43556.3 iterations 298
Cbc0038I Pass  41: suminf.   60.67539 (551) obj. 44041 iterations 159
Cbc0038I Pass  42: suminf.   60.09271 (550) obj. 44249.8 iterations 140
Cbc0038I Pass  43: suminf.   60.52286 (526) obj. 43848.3 iterations 217
Cbc0038I Pass  44: suminf.   59.73321 (536) obj. 44118 iterations 75
Cbc0038I Pass  45: suminf.   59.02410 (569) obj. 44233.6 iterations 331
Cbc0038I Pass  46: suminf.   58.97924 (575) obj. 44226.6 iterations 100
Cbc0038I Pass  47: suminf.   59.37190 (549) obj. 44118 iterations 187
Cbc0038I Pass  48: suminf.   58.34903 (542) obj. 44456.1 iterations 199
Cbc0038I Pass  49: suminf.   57.87922 (572) obj. 44237.2 iterations 161
Cbc0038I Pass  50: suminf.   57.87922 (572) obj. 44237.2 iterations 1
Cbc0038I Pass  51: suminf.   59.80485 (542) obj. 44118 iterations 318
Cbc0038I Pass  52: suminf.   58.87048 (555) obj. 44132.8 iterations 205
Cbc0038I Pass  53: suminf.   58.86139 (561) obj. 44131.5 iterations 68
Cbc0038I Pass  54: suminf.   58.96913 (572) obj. 44207.2 iterations 334
Cbc0038I Pass  55: suminf.   57.87922 (572) obj. 44237.2 iterations 79
Cbc0038I Pass  56: suminf.   59.67169 (543) obj. 44118 iterations 179
Cbc0038I Pass  57: suminf.   58.91127 (546) obj. 44118 iterations 152
Cbc0038I Pass  58: suminf.   59.42574 (589) obj. 44170.6 iterations 239
Cbc0038I Pass  59: suminf.   57.76039 (595) obj. 44189.1 iterations 186
Cbc0038I Pass  60: suminf.   60.24387 (547) obj. 43230.9 iterations 283
Cbc0038I Pass  61: suminf.   59.35523 (533) obj. 41667.5 iterations 196
Cbc0038I Pass  62: suminf.   58.88912 (533) obj. 41481.8 iterations 86
Cbc0038I Pass  63: suminf.   58.41559 (533) obj. 39921.2 iterations 275
Cbc0038I Pass  64: suminf.   57.04253 (532) obj. 39890.8 iterations 143
Cbc0038I Pass  65: suminf.   57.91627 (542) obj. 44499.7 iterations 196
Cbc0038I Pass  66: suminf.   57.26079 (537) obj. 42744.4 iterations 191
Cbc0038I Pass  67: suminf.   58.83234 (529) obj. 39911.5 iterations 237
Cbc0038I Pass  68: suminf.   57.40426 (521) obj. 39645 iterations 170
Cbc0038I Pass  69: suminf.   58.41409 (517) obj. 44123 iterations 206
Cbc0038I Pass  70: suminf.   57.18047 (529) obj. 44188.8 iterations 183
Cbc0038I Pass  71: suminf.   54.96692 (514) obj. 43751.7 iterations 262
Cbc0038I Pass  72: suminf.   58.17700 (523) obj. 43985.5 iterations 171
Cbc0038I Pass  73: suminf.   59.16454 (543) obj. 44219.7 iterations 242
Cbc0038I Pass  74: suminf.   58.51278 (511) obj. 44118 iterations 177
Cbc0038I Pass  75: suminf.   58.22613 (508) obj. 44118 iterations 39
Cbc0038I Pass  76: suminf.   58.47015 (560) obj. 43920.5 iterations 333
Cbc0038I Pass  77: suminf.   59.25302 (521) obj. 44211.4 iterations 254
Cbc0038I Pass  78: suminf.   58.50667 (522) obj. 44271.9 iterations 50
Cbc0038I Pass  79: suminf.   58.70648 (544) obj. 44866.8 iterations 164
Cbc0038I Pass  80: suminf.   58.36867 (526) obj. 44422.2 iterations 130
Cbc0038I Pass  81: suminf.   58.96418 (563) obj. 44558.3 iterations 195
Cbc0038I Pass  82: suminf.  104.19391 (566) obj. 47753.2 iterations 1160
Cbc0038I Pass  83: suminf.   60.19245 (550) obj. 45412.8 iterations 763
Cbc0038I Pass  84: suminf.   64.66766 (579) obj. 45475.9 iterations 199
Cbc0038I Pass  85: suminf.   63.65153 (582) obj. 45437.3 iterations 95
Cbc0038I Pass  86: suminf.   60.98487 (529) obj. 43863.9 iterations 306
Cbc0038I Pass  87: suminf.   60.01621 (542) obj. 43829.5 iterations 140
Cbc0038I Pass  88: suminf.   59.33688 (536) obj. 44542.3 iterations 97
Cbc0038I Pass  89: suminf.   58.87944 (544) obj. 43027.6 iterations 95
Cbc0038I Pass  90: suminf.   61.48519 (543) obj. 44038.4 iterations 308
Cbc0038I Pass  91: suminf.   60.78014 (535) obj. 43816.8 iterations 66
Cbc0038I Pass  92: suminf.   59.26454 (531) obj. 42701.5 iterations 157
Cbc0038I Pass  93: suminf.   59.00607 (539) obj. 42693.5 iterations 55
Cbc0038I Pass  94: suminf.   59.78827 (540) obj. 45395.5 iterations 256
Cbc0038I Pass  95: suminf.   58.64807 (538) obj. 45468.1 iterations 143
Cbc0038I Pass  96: suminf.   59.46717 (552) obj. 45839.9 iterations 172
Cbc0038I Pass  97: suminf.   59.26169 (554) obj. 45788.9 iterations 29
Cbc0038I Pass  98: suminf.   59.46555 (549) obj. 45456.5 iterations 248
Cbc0038I Pass  99: suminf.   58.16948 (562) obj. 45566.6 iterations 131
Cbc0038I Pass 100: suminf.   88.20444 (545) obj. 53602.9 iterations 934
Cbc0038I No solution found this major pass
Cbc0038I Before mini branch and bound, 53 integers at bound fixed and 0 continuous
Cbc0038I Full problem 2919 rows 984 columns, reduced to 2782 rows 926 columns - too large
Cbc0038I Mini branch and bound did not improve solution (3.66 seconds)
Cbc0038I After 3.66 seconds - Feasibility pump exiting - took 3.20 seconds
Cbc0031I 53 added rows had average density of 11.698113
Cbc0013I At root node, 53 cuts changed objective from 25600 to 25600 in 10 passes
Cbc0014I Cut generator 0 (Probing) - 6 row cuts average 2.8 elements, 0 column cuts (0 active)  in 0.056 seconds - new frequency is -100
Cbc0014I Cut generator 1 (Gomory) - 191 row cuts average 535.9 elements, 0 column cuts (0 active)  in 0.294 seconds - new frequency is 1
Cbc0014I Cut generator 2 (Knapsack) - 2 row cuts average 4.0 elements, 0 column cuts (0 active)  in 0.011 seconds - new frequency is -100
Cbc0014I Cut generator 3 (Clique) - 0 row cuts average 0.0 elements, 0 column cuts (0 active)  in 0.011 seconds - new frequency is -100
Cbc0014I Cut generator 4 (MixedIntegerRounding2) - 0 row cuts average 0.0 elements, 0 column cuts (0 active)  in 0.013 seconds - new frequency is -100
Cbc0014I Cut generator 5 (FlowCover) - 1 row cuts average 4.0 elements, 0 column cuts (0 active)  in 0.009 seconds - new frequency is -100
Cbc0014I Cut generator 6 (TwoMirCuts) - 110 row cuts average 12.2 elements, 0 column cuts (0 active)  in 0.113 seconds - new frequency is -100
Cbc0014I Cut generator 7 (ZeroHalf) - 164 row cuts average 21.2 elements, 0 column cuts (0 active)  in 0.308 seconds - new frequency is -100
Cbc0010I After 0 nodes, 1 on tree, 1e+50 best solution, best possible 25600 (8.56 seconds)
Cbc0010I After 100 nodes, 21 on tree, 1e+50 best solution, best possible 25611 (76.77 seconds)
Cbc0010I After 200 nodes, 52 on tree, 1e+50 best solution, best possible 25611 (119.81 seconds)
Cbc0010I After 300 nodes, 78 on tree, 1e+50 best solution, best possible 25611 (174.59 seconds)
Cbc0010I After 400 nodes, 112 on tree, 1e+50 best solution, best possible 25611 (217.40 seconds)
Cbc0010I After 500 nodes, 156 on tree, 1e+50 best solution, best possible 25611 (252.95 seconds)
Cbc0010I After 600 nodes, 204 on tree, 1e+50 best solution, best possible 25611 (285.27 seconds)
Cbc0010I After 700 nodes, 254 on tree, 1e+50 best solution, best possible 25611 (317.40 seconds)
Cbc0010I After 800 nodes, 277 on tree, 1e+50 best solution, best possible 25611 (366.06 seconds)
Cbc0010I After 900 nodes, 319 on tree, 1e+50 best solution, best possible 25611 (401.99 seconds)
Cbc0010I After 1000 nodes, 361 on tree, 1e+50 best solution, best possible 25611 (435.55 seconds)
Cbc0010I After 1100 nodes, 373 on tree, 1e+50 best solution, best possible 25611 (462.46 seconds)
Cbc0010I After 1200 nodes, 375 on tree, 1e+50 best solution, best possible 25611 (491.29 seconds)
Cbc0010I After 1300 nodes, 374 on tree, 1e+50 best solution, best possible 25611 (511.96 seconds)
Cbc0010I After 1400 nodes, 375 on tree, 1e+50 best solution, best possible 25611 (534.32 seconds)
Cbc0010I After 1500 nodes, 359 on tree, 1e+50 best solution, best possible 25614 (560.08 seconds)
Cbc0010I After 1600 nodes, 360 on tree, 1e+50 best solution, best possible 25614 (599.21 seconds)
Cbc0010I After 1700 nodes, 359 on tree, 1e+50 best solution, best possible 25614 (632.19 seconds)
Cbc0010I After 1800 nodes, 359 on tree, 1e+50 best solution, best possible 25614 (665.19 seconds)
Cbc0010I After 1900 nodes, 360 on tree, 1e+50 best solution, best possible 25614 (701.44 seconds)
Cbc0010I After 2000 nodes, 359 on tree, 1e+50 best solution, best possible 25614 (730.46 seconds)
Cbc0010I After 2100 nodes, 359 on tree, 1e+50 best solution, best possible 25614 (760.66 seconds)
Cbc0010I After 2200 nodes, 360 on tree, 1e+50 best solution, best possible 25614 (788.20 seconds)
Cbc0010I After 2300 nodes, 359 on tree, 1e+50 best solution, best possible 25614 (819.51 seconds)
Cbc0010I After 2400 nodes, 359 on tree, 1e+50 best solution, best possible 25614 (850.99 seconds)
Cbc0010I After 2500 nodes, 360 on tree, 1e+50 best solution, best possible 25614 (887.76 seconds)
Cbc0010I After 2600 nodes, 359 on tree, 1e+50 best solution, best possible 25614 (920.00 seconds)
Cbc0010I After 2700 nodes, 359 on tree, 1e+50 best solution, best possible 25614 (960.57 seconds)
Cbc0010I After 2800 nodes, 359 on tree, 1e+50 best solution, best possible 25614 (998.94 seconds)
Cbc0010I After 2900 nodes, 359 on tree, 1e+50 best solution, best possible 25614 (1029.79 seconds)
Cbc0010I After 3000 nodes, 359 on tree, 1e+50 best solution, best possible 25614 (1064.01 seconds)
Cbc0010I After 3100 nodes, 359 on tree, 1e+50 best solution, best possible 25614 (1099.52 seconds)
Cbc0010I After 3200 nodes, 359 on tree, 1e+50 best solution, best possible 25614 (1129.49 seconds)
Cbc0010I After 3300 nodes, 361 on tree, 1e+50 best solution, best possible 25614 (1158.46 seconds)
Cbc0010I After 3400 nodes, 359 on tree, 1e+50 best solution, best possible 25614 (1187.45 seconds)
Cbc0010I After 3500 nodes, 360 on tree, 1e+50 best solution, best possible 25614 (1216.74 seconds)
Cbc0010I After 3600 nodes, 359 on tree, 1e+50 best solution, best possible 25614 (1251.42 seconds)
Cbc0010I After 3700 nodes, 359 on tree, 1e+50 best solution, best possible 25614 (1289.74 seconds)
Cbc0010I After 3800 nodes, 359 on tree, 1e+50 best solution, best possible 25614 (1325.49 seconds)
Cbc0010I After 3900 nodes, 359 on tree, 1e+50 best solution, best possible 25614 (1366.47 seconds)
Cbc0010I After 4000 nodes, 359 on tree, 1e+50 best solution, best possible 25614 (1401.04 seconds)
Cbc0010I After 4100 nodes, 359 on tree, 1e+50 best solution, best possible 25614 (1433.02 seconds)
Cbc0010I After 4200 nodes, 359 on tree, 1e+50 best solution, best possible 25614 (1466.14 seconds)
Cbc0010I After 4300 nodes, 360 on tree, 1e+50 best solution, best possible 25614 (1498.51 seconds)
Cbc0010I After 4400 nodes, 359 on tree, 1e+50 best solution, best possible 25614 (1534.93 seconds)
Cbc0010I After 4500 nodes, 359 on tree, 1e+50 best solution, best possible 25614 (1571.42 seconds)
Cbc0010I After 4600 nodes, 359 on tree, 1e+50 best solution, best possible 25614 (1602.41 seconds)
Cbc0010I After 4700 nodes, 359 on tree, 1e+50 best solution, best possible 25614 (1630.17 seconds)
Cbc0010I After 4800 nodes, 359 on tree, 1e+50 best solution, best possible 25614 (1658.14 seconds)
Cbc0010I After 4900 nodes, 359 on tree, 1e+50 best solution, best possible 25614 (1688.21 seconds)
Cbc0010I After 5000 nodes, 359 on tree, 1e+50 best solution, best possible 25614 (1722.30 seconds)
Cbc0010I After 5100 nodes, 358 on tree, 1e+50 best solution, best possible 25615 (1754.78 seconds)
Cbc0010I After 5200 nodes, 359 on tree, 1e+50 best solution, best possible 25615 (1782.22 seconds)
Cbc0020I Exiting on maximum time
Cbc0005I Partial search - best objective 1e+50 (best possible 25615), took 7777906 iterations and 5254 nodes (1800.53 seconds)
Cbc0032I Strong branching done 20484 times (1650778 iterations), fathomed 1468 nodes and fixed 1692 variables
Cbc0035I Maximum depth 1908, 0 variables fixed on reduced cost
Cuts at root node changed objective from 25600 to 25600
Probing was tried 10 times and created 6 cuts of which 0 were active after adding rounds of cuts (0.056 seconds)
Gomory was tried 976 times and created 2818 cuts of which 0 were active after adding rounds of cuts (4.745 seconds)
Knapsack was tried 10 times and created 2 cuts of which 0 were active after adding rounds of cuts (0.011 seconds)
Clique was tried 10 times and created 0 cuts of which 0 were active after adding rounds of cuts (0.011 seconds)
MixedIntegerRounding2 was tried 10 times and created 0 cuts of which 0 were active after adding rounds of cuts (0.013 seconds)
FlowCover was tried 10 times and created 1 cuts of which 0 were active after adding rounds of cuts (0.009 seconds)
TwoMirCuts was tried 10 times and created 110 cuts of which 0 were active after adding rounds of cuts (0.113 seconds)
ZeroHalf was tried 10 times and created 164 cuts of which 0 were active after adding rounds of cuts (0.308 seconds)
ImplicationCuts was tried 63 times and created 14 cuts of which 0 were active after adding rounds of cuts (0.003 seconds)

Result - Stopped on time limit

No feasible solution found
Lower bound:                    25615.000
Enumerated nodes:               5254
Total iterations:               7777906
Time (CPU seconds):             1800.53
Time (Wallclock seconds):       1824.86

Total time (CPU seconds):       1800.54   (Wallclock seconds):       1824.88

